NAME: set1_case2_8_25
COMMENT: 722
VEHICLE: 19
TIME: 600
DIMENSION: 20
CAPACITY: 10
DELIVERY_SECTION
0 0 0
1 1 2.5
2 1 2.5
3 1 2.5
4 1 2.5
5 2 2.5
6 2 2.5
7 2 2.5
8 2 2.5
9 3 2.5
10 3 2.5
11 3 2.5
12 3 2.5
13 4 2.5
14 4 2.5
15 4 2.5
16 4 2.5
17 5 2.5
18 5 2.5
19 5 2.5
20 5 2.5
21 6 2.5
22 6 2.5
23 6 2.5
24 6 2.5
25 7 2.5
26 7 2.5
27 7 2.5
28 7 2.5
29 8 2.5
30 8 2.5
31 8 2.5
32 8 2.5
33 9 2.5
34 9 2.5
35 9 2.5
36 9 2.5
37 10 2.5
38 10 2.5
39 10 2.5
40 10 2.5
41 11 2.5
42 11 2.5
43 11 2.5
44 11 2.5
45 12 2.5
46 12 2.5
47 12 2.5
48 12 2.5
49 13 2.5
50 13 2.5
51 13 2.5
52 13 2.5
53 14 2.5
54 14 2.5
55 14 2.5
56 14 2.5
57 15 2.5
58 15 2.5
59 15 2.5
60 15 2.5
61 16 2.5
62 16 2.5
63 16 2.5
64 16 2.5
65 17 2.5
66 17 2.5
67 17 2.5
68 17 2.5
69 18 2.5
70 18 2.5
71 18 2.5
72 18 2.5
73 19 2.5
74 19 2.5
75 19 2.5
76 19 2.5
PICKUP_SECTION
0 0 0
1 1 2.5
2 1 2.5
3 2 2.5
4 2 2.5
5 3 2.5
6 3 2.5
7 4 2.5
8 4 2.5
9 5 2.5
10 5 2.5
11 6 2.5
12 6 2.5
13 7 2.5
14 7 2.5
15 8 2.5
16 8 2.5
17 9 2.5
18 9 2.5
19 10 2.5
20 10 2.5
21 11 2.5
22 11 2.5
23 12 2.5
24 12 2.5
25 13 2.5
26 13 2.5
27 14 2.5
28 14 2.5
29 15 2.5
30 15 2.5
31 16 2.5
32 16 2.5
33 17 2.5
34 17 2.5
35 18 2.5
36 18 2.5
37 19 2.5
38 19 2.5
NODE_SECTION
DISTANCE_SECTION
10 11 12 13 14 15 16 17 18 19 20 21 22 23 24 25 26 27 28 
10 11 12 13 14 15 16 17 18 19 20 21 22 23 24 25 26 27 
10 11 12 13 14 15 16 17 18 19 20 21 22 23 24 25 26 
10 11 12 13 14 15 16 17 18 19 20 21 22 23 24 25 
10 11 12 13 14 15 16 17 18 19 20 21 22 23 24 
10 11 12 13 14 15 16 17 18 19 20 21 22 23 
10 11 12 13 14 15 16 17 18 19 20 21 22 
10 11 12 13 14 15 16 17 18 19 20 21 
10 11 12 13 14 15 16 17 18 19 20 
10 11 12 13 14 15 16 17 18 19 
10 11 12 13 14 15 16 17 18 
10 11 12 13 14 15 16 17 
10 11 12 13 14 15 16 
10 11 12 13 14 15 
10 11 12 13 14 
10 11 12 13 
10 11 12 
10 11 
10 
DEPOT_SECTION
0
EOF